
  22   10
  10   10   10   10   10   10   10   10   10   10

   0   0   0   0   0   0   0   0   0   0   0  12 2 3 4 5 6 7 8 17 18 19 20 21 
   4  10  10  10  10  10  10  10  10  10  10   5 16 15 12 10 9 
   4  10  10  10  10  10  10  10  10  10  10   3 12 10 9 
  10  10  10  10  10  10  10  10  10  10  10   2 14 10 
   5  10  10  10  10  10  10  10  10  10  10   2 11 9 
   8  10  10  10  10  10  10  10  10  10  10   2 10 9 
  10  10  10  10  10  10  10  10  10  10  10   1 13 
   7  10  10  10  10  10  10  10  10  10  10   1 11 
  10  10  10  10  10  10  10  10  10  10  10   1 22
   2  10  10  10  10  10  10  10  10  10  10   1 22
   3  10  10  10  10  10  10  10  10  10  10   1 22
   9  10  10  10  10  10  10  10  10  10  10   1 22
   5  10  10  10  10  10  10  10  10  10  10   1 22
   2  10  10  10  10  10  10  10  10  10  10   1 22
   3  10  10  10  10  10  10  10  10  10  10   1 22
   8  10  10  10  10  10  10  10  10  10  10   1 22
  10  10  10  10  10  10  10  10  10  10  10   1 22
   8  10  10  10  10  10  10  10  10  10  10   1 22
   2  10  10  10  10  10  10  10  10  10  10   1 22
   6  10  10  10  10  10  10  10  10  10  10   1 22
   8  10  10  10  10  10  10  10  10  10  10   1 22
   0   0   0   0   0   0   0   0   0   0   0   0 
